&control
    title = 'CBP'
    prefix = 'cbp'
    calculation = 'relax'
    restart_mode = 'from_scratch'
    pseudo_dir = './pseudo/'
    outdir = './scratch/'
    verbosity = 'high'
    tstress = .true.
    tprnfor = .true.
/
&system
    ibrav = 0
    nat = 248
    ntyp = 3
    ecutwfc = 25
    ecutrho = 250
    occupations = 'smearing'
    degauss = 0.01
    nspin = 2
    tot_magnetization = 2.0
/
&electrons
    mixing_beta = 0.4
    conv_thr = 1e-9
/
&ions
    ion_dynamics = 'bfgs'
/
ATOMIC_SPECIES
C   0  C.pbe-rrkjus.UPF
N   0  N.pbe-rrkjus.UPF
H   0  H.pbe-rrkjus.UPF

K_POINTS gamma

CELL_PARAMETERS angstrom
 9.61440010068000  0.00000000000000  0.00000000000000
 0.00000000000000 19.20959930424000  0.00000000000000
-8.48434299792000  0.00000000000000 23.07219144432000

ATOMIC_POSITIONS angstrom
C     7.31749870000000     1.75636152000000     0.15742094000000
H     7.28887410000000     1.84580250000000     1.14284120000000
C     7.76155000000000     0.56380000000000    -0.41703000000000
C     6.81783435000000     2.79003904000000    -0.60785198000000
C     7.70759423000000     0.48027368000000    -1.80905292000000
C     8.26245000000000    -0.56380000000000     0.41703000000000
H     6.48789979000000     3.58464382000000    -0.20072405000000
C     6.75508235000000     2.67847017000000    -1.98828919000000
H     8.03485256000000    -0.32786022000000    -2.25970363000000
C     7.22376296000000     1.51121503000000    -2.58981694000000
C     9.34662094000000    -1.34555674000000     0.01353504000000
C     7.67644726000000    -0.88869030000000     1.64122883000000
N     6.19511554000000     3.71430817000000    -2.77711763000000
H     7.22075948000000     1.45932448000000    -3.55414325000000
C     9.83828450000000    -2.36761611000000     0.79931994000000
H     9.82772081000000    -1.12358739000000    -0.82261368000000
C     8.14755930000000    -1.91752311000000     2.43248208000000
H     6.89414490000000    -0.38499621000000     1.95357440000000
C     5.07136172000000     3.61277793000000    -3.60483693000000
C     6.58902516000000     5.06452409000000    -2.73854888000000
C     9.25311048000000    -2.66099719000000     2.02140472000000
H    10.59868416000000    -2.87126176000000     0.52703308000000
H     7.71617124000000    -2.15805513000000     3.26234687000000
C     4.33850621000000     2.48641475000000    -3.96654383000000
C     4.73936726000000     4.89366664000000    -4.09182731000000
C     5.70282851000000     5.82052307000000    -3.54324973000000
C     7.69141386000000     5.64967232000000    -2.11831989000000
N     9.78437575000000    -3.67445739000000     2.85772353000000
C     3.28888404000000     2.66575739000000    -4.85938619000000
H     4.60784695000000     1.58940616000000    -3.62379426000000
C     3.67481126000000     5.03579885000000    -4.98109961000000
C     5.91509614000000     7.18470607000000    -3.69165934000000
H     8.32199633000000     5.12011089000000    -1.58992790000000
C     7.86827552000000     7.01253377000000    -2.28682496000000
C    10.13916446000000    -4.96900322000000     2.43580163000000
C    10.18725585000000    -3.52561108000000     4.18955785000000
H     2.75189118000000     1.87124680000000    -5.12907958000000
C     2.95876205000000     3.92973850000000    -5.36569993000000
H     3.46224031000000     5.92538363000000    -5.35092066000000
H     5.31470588000000     7.71249804000000    -4.24242681000000
C     6.99025253000000     7.77259968000000    -3.06842072000000
H     8.67763063000000     7.48235206000000    -1.86090930000000
C     9.88055777000000    -5.60961760000000     1.22540571000000
C    10.77610919000000    -5.63883286000000     3.50821556000000
C    10.80483572000000    -4.71743459000000     4.62107573000000
C    10.03831881000000    -2.43561981000000     5.04181362000000
H     2.25178984000000     4.04789572000000    -6.04755302000000
H     7.16797635000000     8.70708971000000    -3.14325025000000
C    10.30599114000000    -6.92073348000000     1.09484171000000
H     9.41041617000000    -5.15631291000000     0.49688022000000
C    11.18515149000000    -6.95515748000000     3.34072789000000
C    11.24834221000000    -4.82317628000000     5.93880368000000
H     9.57907662000000    -1.61214240000000     4.71680949000000
C    10.48636935000000    -2.58001634000000     6.34926851000000
H    10.12104923000000    -7.43692719000000     0.22505461000000
C    10.94961738000000    -7.58839253000000     2.14341544000000
H    11.62134007000000    -7.42465283000000     4.06989953000000
H    11.64889776000000    -5.66808491000000     6.25344594000000
C    11.08553774000000    -3.76461633000000     6.79726681000000
H    10.38945133000000    -1.81001388000000     6.97380518000000
H    11.21829427000000    -8.49071644000000     1.98829543000000
H    11.34815861000000    -3.88866126000000     7.74296106000000
N     7.70780016842000    13.31910811202000     8.54516894018000
C     6.14136570842000    10.16859994202000     6.18508131018000
C     6.58541700842000    11.36116146202000     5.61063037018000
C     7.08507877842000    12.39483984202000     6.37589367018000
C     7.14783077842000    12.28327098202000     7.75633087018000
C     6.67915274842000    11.11601497202000     8.35786825018000
C     6.19532147842000    10.08507362202000     7.57710423018000
C     7.31388213842000    14.66932389202000     8.50659506018000
C     6.21149302842000    15.25446847202000     7.88638012018000
C     6.03462357842000    16.61733010202000     8.05487937018000
C     6.91265007842000    17.37739625202000     8.83648314018000
C     7.98781052842000    16.78950505202000     9.45971705018000
C     8.20008239842000    15.42532310202000     9.31130388018000
C     9.16355088842000    14.49845933202000     9.85987432018000
C     8.83155339842000    13.21758116202000     9.37287513018000
C     9.56440854842000    12.09121577202000     9.73458973018000
H     6.61404160842000    11.45060244202000     4.62521011018000
H     7.41501332842000    13.18944463202000     5.96876574018000
H     6.68214671842000    11.06412244202000     9.32219694018000
H     5.86805363842000     9.27693774202000     8.02775731018000
H     5.58091067842000    14.72490598202000     7.35798906018000
H     5.22526546842000    17.08714649202000     7.62896732018000
H     8.58820074842000    17.31729794202000    10.01048369018000
H     9.29507523842000    11.19421095202000     9.39182671018000
C     5.64046570842000     9.04099994202000     5.35102131018000
H     6.73492327842000    18.31188552202000     8.91131522018000
C    10.22810339842000    14.64060401202000    10.74913629018000
C    10.61404203842000    12.27056299202000    10.62742589018000
C     4.55629713842000     8.25924186202000     5.75450665018000
C     6.22646844842000     8.71610964202000     4.12682248018000
C    10.94416128842000    13.53454418202000    11.13374122018000
H    10.44067607842000    15.53018760202000    11.11896778018000
H    11.15103851842000    11.47605369202000    10.89711587018000
C     4.06463120842000     7.23718383202000     4.96873137018000
H     4.07519727842000     8.48121122202000     6.59065537018000
C     5.75535878842000     7.68727549202000     3.33555961018000
H     7.00877318842000     9.21980240202000     3.81446729018000
H    11.65113529842000    13.65270241202000    11.81559227018000
H     3.30423154842000     6.73353818202000     5.24101823018000
C     4.64980522842000     6.94380275202000     3.74664659018000
H     6.18674446842000     7.44674481202000     2.50570444018000
N     4.11854232842000     5.93034121202000     2.91031816018000
C     3.60394687842000     6.10306941202000     1.62051854018000
C     3.87904460842000     4.60031516202000     3.30199856018000
C     3.02964043842000     4.89074535202000     1.18634482018000
C     3.61757070842000     7.23204029202000     0.80697271018000
C     3.20276421842000     3.93157763202000     2.25324839018000
C     4.27109692842000     3.93242414202000     4.46067298018000
C     2.49154238842000     4.80642567202000    -0.09724511982000
C     3.07815986842000     7.10848871202000    -0.46770720982000
H     4.04885651842000     8.07078506202000     1.13124438018000
C     2.89067448842000     2.58596090202000     2.39465468018000
C     3.93948779842000     2.59233344202000     4.56676486018000
H     4.76788998842000     4.38743384202000     5.17020911018000
C     2.52042932842000     5.90519547202000    -0.91937567982000
H     2.12079125842000     3.94974681202000    -0.41655692982000
H     3.07776415842000     7.90634129202000    -1.06416620982000
H     2.42862879842000     2.11704549202000     1.68120548018000
C     3.25829502842000     1.92441880202000     3.54236423018000
H     4.22380390842000     2.05663928202000     5.39705709018000
H     2.19263423842000     5.80029424202000    -1.84685782982000
H     3.05918263842000     1.00124828202000     3.67855662018000
C     3.07532720104000     1.75636152000000    11.69351666216000
H     3.04670260104000     1.84580250000000    12.67893692216000
C     3.51937850104000     0.56380000000000    11.11906572216000
C     2.57566285104000     2.79003904000000    10.92824374216000
C     3.46542273104000     0.48027368000000     9.72704280216000
C     4.02027850104000    -0.56380000000000    11.95312572216000
H     2.24572829104000     3.58464382000000    11.33537167216000
C     2.51291085104000     2.67847017000000     9.54780653216000
H     3.79268106104000    -0.32786022000000     9.27639209216000
C     2.98159146104000     1.51121503000000     8.94627878216000
C     5.10444944104000    -1.34555674000000    11.54963076216000
C     3.43427576104000    -0.88869030000000    13.17732455216000
N     1.95294404104000     3.71430817000000     8.75897809216000
H     2.97858798104000     1.45932448000000     7.98195247216000
C     5.59611300104000    -2.36761611000000    12.33541566216000
H     5.58554931104000    -1.12358739000000    10.71348204216000
C     3.90538780104000    -1.91752311000000    13.96857780216000
H     2.65197340104000    -0.38499621000000    13.48967012216000
C     0.82919022104000     3.61277793000000     7.93125879216000
C     2.34685366104000     5.06452409000000     8.79754684216000
C     5.01093898104000    -2.66099719000000    13.55750044216000
H     6.35651266104000    -2.87126176000000    12.06312880216000
H     3.47399974104000    -2.15805513000000    14.79844259216000
C     0.09633471104000     2.48641475000000     7.56955189216000
C     0.49719576104000     4.89366664000000     7.44426841216000
C     1.46065701104000     5.82052307000000     7.99284599216000
C     3.44924236104000     5.64967232000000     9.41777583216000
N     5.54220425104000    -3.67445739000000    14.39381925216000
C    -0.95328745896000     2.66575739000000     6.67670953216000
H     0.36567545104000     1.58940616000000     7.91230146216000
C    -0.56736023896000     5.03579885000000     6.55499611216000
C     1.67292464104000     7.18470607000000     7.84443638216000
H     4.07982483104000     5.12011089000000     9.94616782216000
C     3.62610402104000     7.01253377000000     9.24927076216000
C     5.89699296104000    -4.96900322000000    13.97189735216000
C     5.94508435104000    -3.52561108000000    15.72565357216000
H    -1.49028031896000     1.87124680000000     6.40701614216000
C    -1.28340944896000     3.92973850000000     6.17039579216000
H    -0.77993118896000     5.92538363000000     6.18517506216000
H     1.07253438104000     7.71249804000000     7.29366891216000
C     2.74808103104000     7.77259968000000     8.46767500216000
H     4.43545913104000     7.48235206000000     9.67518642216000
C     5.63838627104000    -5.60961760000000    12.76150143216000
C     6.53393769104000    -5.63883286000000    15.04431128216000
C     6.56266422104000    -4.71743459000000    16.15717145216000
C     5.79614731104000    -2.43561981000000    16.57790934216000
H    -1.99038165896000     4.04789572000000     5.48854270216000
H     2.92580485104000     8.70708971000000     8.39284547216000
C     6.06381964104000    -6.92073348000000    12.63093743216000
H     5.16824467104000    -5.15631291000000    12.03297594216000
C     6.94297999104000    -6.95515748000000    14.87682361216000
C     7.00617071104000    -4.82317628000000    17.47489940216000
H     5.33690512104000    -1.61214240000000    16.25290521216000
C     6.24419785104000    -2.58001634000000    17.88536423216000
H     5.87887773104000    -7.43692719000000    11.76115033216000
C     6.70744588104000    -7.58839253000000    13.67951116216000
H     7.37916857104000    -7.42465283000000    15.60599525216000
H     7.40672626104000    -5.66808491000000    17.78954166216000
C     6.84336624104000    -3.76461633000000    18.33336253216000
H     6.14727983104000    -1.81001388000000    18.50990090216000
H     6.97612277104000    -8.49071644000000    13.52439115216000
H     7.10598711104000    -3.88866126000000    19.27905678216000
N     3.46562866946000    13.31910811202000    20.08126466234000
C     1.89919420946000    10.16859994202000    17.72117703234000
C     2.34324550946000    11.36116146202000    17.14672609234000
C     2.84290727946000    12.39483984202000    17.91198939234000
C     2.90565927946000    12.28327098202000    19.29242659234000
C     2.43698124946000    11.11601497202000    19.89396397234000
C     1.95314997946000    10.08507362202000    19.11319995234000
C     3.07171063946000    14.66932389202000    20.04269078234000
C     1.96932152946000    15.25446847202000    19.42247584234000
C     1.79245207946000    16.61733010202000    19.59097509234000
C     2.67047857946000    17.37739625202000    20.37257886234000
C     3.74563902946000    16.78950505202000    20.99581277234000
C     3.95791089946000    15.42532310202000    20.84739960234000
C     4.92137938946000    14.49845933202000    21.39597004234000
C     4.58938189946000    13.21758116202000    20.90897085234000
C     5.32223704946000    12.09121577202000    21.27068545234000
H     2.37187010946000    11.45060244202000    16.16130583234000
H     3.17284182946000    13.18944463202000    17.50486146234000
H     2.43997521946000    11.06412244202000    20.85829266234000
H     1.62588213946000     9.27693774202000    19.56385303234000
H     1.33873917946000    14.72490598202000    18.89408478234000
H     0.98309396946000    17.08714649202000    19.16506304234000
H     4.34602924946000    17.31729794202000    21.54657941234000
H     5.05290373946000    11.19421095202000    20.92792243234000
C     1.39829420946000     9.04099994202000    16.88711703234000
H     2.49275177946000    18.31188552202000    20.44741094234000
C     5.98593189946000    14.64060401202000    22.28523201234000
C     6.37187053946000    12.27056299202000    22.16352161234000
C     0.31412563946000     8.25924186202000    17.29060237234000
C     1.98429694946000     8.71610964202000    15.66291820234000
C     6.70198978946000    13.53454418202000    22.66983694234000
H     6.19850457946000    15.53018760202000    22.65506350234000
H     6.90886701946000    11.47605369202000    22.43321159234000
C    -0.17754029054000     7.23718383202000    16.50482709234000
H    -0.16697422054000     8.48121122202000    18.12675109234000
C     1.51318728946000     7.68727549202000    14.87165533234000
H     2.76660168946000     9.21980240202000    15.35056301234000
H     7.40896379946000    13.65270241202000    23.35168799234000
H    -0.93793995054000     6.73353818202000    16.77711395234000
C     0.40763372946000     6.94380275202000    15.28274231234000
H     1.94457296946000     7.44674481202000    14.04180016234000
N    -0.12362917054000     5.93034121202000    14.44641388234000
C    -0.63822462054000     6.10306941202000    13.15661426234000
C    -0.36312689054000     4.60031516202000    14.83809428234000
C    -1.21253106054000     4.89074535202000    12.72244054234000
C    -0.62460079054000     7.23204029202000    12.34306843234000
C    -1.03940728054000     3.93157763202000    13.78934411234000
C     0.02892542946000     3.93242414202000    15.99676870234000
C    -1.75062911054000     4.80642567202000    11.43885060234000
C    -1.16401163054000     7.10848871202000    11.06838851234000
H    -0.19331498054000     8.07078506202000    12.66734010234000
C    -1.35149701054000     2.58596090202000    13.93075040234000
C    -0.30268370054000     2.59233344202000    16.10286058234000
H     0.52571848946000     4.38743384202000    16.70630483234000
C    -1.72174217054000     5.90519547202000    10.61672004234000
H    -2.12138024054000     3.94974681202000    11.11953879234000
H    -1.16440734054000     7.90634129202000    10.47192951234000
H    -1.81354270054000     2.11704549202000    13.21730120234000
C    -0.98387647054000     1.92441880202000    15.07845995234000
H    -0.01836759054000     2.05663928202000    16.93315281234000
H    -2.04953726054000     5.80029424202000     9.68923789234000
H    -1.18298886054000     1.00124828202000    15.21465234234000
