&control
    title = 'Co3O4H2 conf1'
    prefix = 'co3o4-h2-conf1'
    calculation = 'scf'
    restart_mode = 'from_scratch'
    pseudo_dir = './pseudo/'
    outdir = './scratch/'
    verbosity = 'high'
    tstress = .false.
    tprnfor = .true.
    disk_io = 'none'
/
&system
    ibrav = 1
    a = 8.08210
    nat = 57
    ntyp = 5
    ecutwfc = 40
    ecutrho = 400
    nspin = 2
    occupations = 'smearing'
    degauss = 0.01
    smearing = 'm-v'
    starting_magnetization(1) = 0.3
    starting_magnetization(2) =-0.3
    starting_magnetization(3) = 0.0
    lda_plus_U = .true.
    Hubbard_U(1) = 4.4
    Hubbard_U(2) = 4.4
    Hubbard_U(3) = 6.7
/
&electrons
    mixing_beta = 0.2
    conv_thr = 1e-10
    electron_maxstep = 50
/
ATOMIC_SPECIES
Co1   0.000   co_pbe_v1.2.uspp.F.UPF
Co2   0.000   co_pbe_v1.2.uspp.F.UPF
Co3   0.000   co_pbe_v1.2.uspp.F.UPF
O     0.000   o_pbe_v1.2.uspp.F.UPF
H     2.000   h_pbe_v1.uspp.F.UPF

K_POINTS gamma

ATOMIC_POSITIONS (crystal)
H        0.204294597   0.204294597   0.168397758
H        0.045705403   0.045705403   0.168397758
Co1      0.625000000   0.625000000   0.124350792
Co2      0.373935092   0.876064908   0.377043470
Co2      0.876064908   0.373935092   0.377043470
Co1      0.625000000   0.125000000   0.626384572
Co1      0.125000000   0.625000000   0.626384572
Co2      0.375368339   0.375368339   0.877040562
Co2      0.874631661   0.874631661   0.877040562
Co3      0.499640169   0.499640169   0.500302049
Co3      0.249401414   0.753504878   0.001304649
Co3      0.753504878   0.249401414   0.001304649
Co3      0.748160020   0.000449014   0.249262151
Co3      0.249209941   0.000790059   0.756098754
Co3      0.000790059   0.249209941   0.756098754
Co3      0.000449014   0.748160020   0.249262151
Co3      0.496495122   0.000598586   0.001304649
Co3      0.248316960   0.248316960   0.502819159
Co3      0.750359831   0.750359831   0.500302049
Co3      0.750414549   0.499585451   0.751138164
Co3      0.249550986   0.501839980   0.249262151
Co3      0.000598586   0.496495122   0.001304649
Co3      0.501839980   0.249550986   0.249262151
Co3      0.499585451   0.750414549   0.751138164
Co3      0.001683040   0.001683040   0.502819159
O        0.263131669   0.263131669   0.257940788
O        0.736506181   0.736506181   0.736699237
O        0.485097535   0.986946165   0.765837987
O        0.514283264   0.013705692   0.238110768
O        0.987524829   0.765190294   0.485667508
O        0.013844409   0.236155591   0.518052244
O        0.764281690   0.485718310   0.987440019
O        0.236639775   0.514391102   0.014584466
O        0.013705692   0.514283264   0.238110768
O        0.986946165   0.485097535   0.765837987
O        0.514391102   0.236639775   0.014584466
O        0.485718310   0.764281690   0.987440019
O        0.236155591   0.013844409   0.518052244
O        0.765190294   0.987524829   0.485667508
O        0.263053835   0.764902465   0.765837987
O        0.735716736   0.236294308   0.238110768
O        0.486034723   0.486034723   0.263242378
O        0.513493819   0.513493819   0.736699237
O        0.989057368   0.260942632   0.991783591
O        0.013360225   0.735608898   0.014584466
O        0.012287125   0.012287125   0.736885996
O        0.986868331   0.986868331   0.257940788
O        0.513779543   0.736220457   0.514520804
O        0.484809706   0.262475171   0.485667508
O        0.764902465   0.263053835   0.765837987
O        0.236294308   0.735716736   0.238110768
O        0.262475171   0.484809706   0.485667508
O        0.736220457   0.513779543   0.514520804
O        0.735608898   0.013360225   0.014584466
O        0.260942632   0.989057368   0.991783591
O        0.763965277   0.763965277   0.263242378
O        0.237712875   0.237712875   0.736885996

