 &CONTROL
   calculation =   'scf'   ,
   restart_mode = 'from_scratch' ,
   outdir='./' ,
   pseudo_dir = './pseudo' ,
   disk_io = 'none',

 /
 &SYSTEM
   ibrav = 0 ,
   A = 11.4915 ,
  tot_magnetization = 0 ,
			  nat  =  164 , 
			 ntyp  =  3 , 
		  ecutwfc  =  29.4 ,
		  ecutrho  =  117.6 ,
	  occupations  =  'smearing' ,
		 smearing  =  'gauss' ,
		  degauss  =  0.005 ,
	 nspin = 2 ,	
 /
 &ELECTRONS
    electron_maxstep = 20
    conv_thr = 1.D-10
 /
 &IONS
 /
 &CELL
   cell_dynamics = 'bfgs' ,
   press = 0.0 ,
 /
CELL_PARAMETERS  
   1.00000   0.00000   0.00000 
   0.00000   1.00000   0.00000 
   0.50000   0.50000   2.17550 
 
ATOMIC_SPECIES
    H 1.00794 H.pbe-van_ak.UPF
    Ti 47.867 Ti.pbe-sp-van_ak.UPF
    O 15.9994 O.pbe-van_ak.UPF
 
ATOMIC_POSITIONS (angstrom)
 H      9.5000      8.00000     14.70    !  1
 H      9.5000      9.00000     14.70    !  1
 Ti     9.62177     6.76485     3.52767  !  6
 Ti     3.89591     2.94026     1.10928  !  1
 Ti     1.97322     2.94277     3.52055  !  1
 Ti     7.71558     2.94475     1.10635  !  2
 Ti     5.80210     2.95529     3.52937  !  2
 Ti    11.53101     2.93835     1.10026  !  3
 Ti     9.61992     2.94233     3.52787  !  3
 Ti     3.89007     6.75574     1.11045  !  4 
 Ti     1.98576     6.76790     3.52952  !  4
 Ti     7.71210     6.76803     1.10435  !  5 
 Ti     5.80644     6.77836     3.52697  !  5
 Ti    11.53181     6.75907     1.11543  !  6
 Ti     3.90549    10.57926     1.10937  !  7
 Ti     1.97941    10.58261     3.52657  !  7
 Ti     7.72725    10.59073     1.10758  !  8
 Ti     5.80376    10.59327     3.52568  !  8
 Ti    11.54691    10.58251     1.10769  !  9
 Ti     9.62454    10.58569     3.53042  !  9 
 Ti     5.81773     4.85189     5.94705  !  10
 Ti     3.91176     4.85191     8.36431  !  10
 Ti     9.63707     4.86076     5.94831  !  11
 Ti     7.73234     4.86386     8.37143  !  11
 Ti    13.45956     4.84930     5.94341  !  12 
 Ti    11.55683     4.86490     8.36765  !  12
 Ti     5.81243     8.66941     5.94927  !  13
 Ti     3.90370     8.67259     8.36845  !  13
 Ti     9.63311     8.68015     5.94776  !  14
 Ti     7.72325     8.69042     8.36832  !  14
 Ti    13.45398     8.67563     5.95190  !  15
 Ti    11.54158     8.69054     8.37130  !  15
 Ti     5.81808    12.48925     5.94894  !  16
 Ti     3.90294    12.48972     8.37531  !  16
 Ti     9.64019    12.50086     5.95340  !  17
 Ti     7.72052    12.50804     8.37014  !  17
 Ti    13.46765    12.49620     5.94984  !  18
 Ti    11.54405    12.50672     8.36796  !  18
 Ti     7.73575     6.76665    10.78849  !  19 
 Ti     5.82584     6.75695    13.20533  !  19
 Ti    11.55295     6.77966    10.78657  !  20
 Ti     9.64325     6.77247    13.21416  !  20
 Ti    15.37744     6.76320    10.79114  !  21
 Ti    13.46507     6.76702    13.20466  !  21
 Ti     7.72298    10.58404    10.78943  !  22
 Ti     5.81372    10.58352    13.21021  !  22
 Ti    11.54211    10.60090    10.79034  !  23
 Ti     9.63306    10.59479    13.20926  !  23
 Ti    15.36438    10.58539    10.79363  !  24
 Ti    13.45226    10.58491    13.21164  !  24
 Ti     7.72825    14.40368    10.79544  !  25
 Ti     5.80605    14.39631    13.21667  !  25
 Ti    11.55092    14.41621    10.79303  !  26
 Ti     9.62996    14.40910    13.21380  !  26
 Ti    15.37713    14.40733    10.79255  !  27
 Ti    13.45123    14.40630    13.21244  !  27
 O      3.89104     1.03469      .69358  ! 1
 O      3.89256     2.94395     3.11352  ! 1 
 O      1.97605     4.85359     3.92963  ! 1
 O      1.98162     2.94408     1.51227  ! 1
 O      7.71484     1.03461      .69021  ! 2
 O      7.71412     2.94305     3.11107  ! 2
 O      5.80588     4.85801     3.93483  ! 2
 O      5.80479     2.94437     1.51501  ! 2
 O     11.53684     1.03064      .69094  ! 3
 O     11.52989     2.94097     3.11127  ! 3
 O      9.62520     4.85562     3.93466  ! 3
 O      9.62434     2.94287     1.51274  ! 3
 O      3.89069     4.85422      .69348  ! 4
 O      3.89431     6.76745     3.11481  ! 4
 O      1.97370     8.67536     3.93274  ! 4
 O      1.98468     6.75907     1.51414  ! 4
 O      7.70971     4.85367      .69160  ! 5
 O      7.71405     6.76813     3.11241  ! 5
 O      5.80672     8.67655     3.93472  ! 5
 O      5.80406     6.76614     1.51468  ! 5
 O     11.53483     4.85108      .69372  ! 6
 O     11.53312     6.76489     3.11406  ! 6
 O      9.62426     8.67551     3.93625  ! 6
 O      9.62321     6.76239     1.51407  ! 6
 O      3.88878     8.67256      .69431  ! 7 
 O      3.89393    10.58023     3.11287  ! 7
 O      1.97786    12.49278     3.93261  ! 7
 O      1.98628    10.58520     1.51317  ! 7
 O      7.71243     8.67512      .69360  ! 8
 O      7.71602    10.58363     3.11134  ! 8
 O      5.80582    12.49472     3.93585  ! 8
 O      5.80661    10.58722     1.51343  ! 8
 O     11.53686     8.66996      .69638  ! 9
 O     11.53402    10.58142     3.11340  ! 9
 O      9.62454    12.49386     3.93678  ! 9
 O      9.62817    10.58422     1.51446  ! 9 
 O      5.81544     2.94429     5.53293  ! 10
 O      5.81882     4.85812     7.95398  ! 10
 O      3.90376     6.76495     8.77315  ! 10
 O      3.90925     4.85257     6.35331  ! 10
 O      9.63636     2.94502     5.53269  ! 11
 O      9.63992     4.86076     7.95252  ! 11
 O      7.73114     6.77153     8.77544  ! 11
 O      7.72802     4.85409     6.35679  ! 11
 O     13.46398     2.94396     5.53365  ! 12 
 O     13.45964     4.85727     7.95302  ! 12
 O     11.54996     6.77448     8.77497  ! 12
 O     11.55092     4.85489     6.35335  ! 12
 O      5.81700     6.76457     5.53293  ! 13
 O      5.81443     8.68384     7.95452  ! 13
 O      3.89783    10.58521     8.77652  ! 13
 O      3.90590     8.66776     6.35582  ! 13
 O      9.63557     6.76554     5.53342  ! 14
 O      9.63448     8.68744     7.95432  ! 14
 O      7.72672    10.59136     8.77822  ! 14
 O      7.72444     8.67420     6.35640  ! 14
 O     13.46569     6.76477     5.53440  ! 15
 O     13.45355     8.68503     7.95579  ! 15
 O     11.54750    10.59528     8.77859  ! 15
 O     11.54512     8.67462     6.35555  ! 15
 O      5.81323    10.58309     5.53302  ! 16
 O      5.81431    12.49470     7.95541  ! 16
 O      3.90459    14.40536     8.77530  ! 16
 O      3.90844    12.49420     6.35650  ! 16
 O      9.63562    10.58588     5.53514  ! 17
 O      9.63536    12.49910     7.95543  ! 17
 O      7.72876    14.40987     8.77943  ! 17 
 O      7.72536    12.49503     6.35852  ! 17
 O     13.46720    10.58494     5.53554  ! 18
 O     13.45728    12.49920     7.95602  ! 18
 O     11.54974    14.41128     8.77796  ! 18
 O     11.54877    12.49441     6.35722  ! 18
 O      7.72752     4.85858    10.37479  ! 19
 O      7.73042     6.76223    12.79547  ! 19
 O      5.81479     8.67150    13.61258  ! 19
 O      5.82318     6.76810    11.19504  ! 19
 O     11.54881     4.86230    10.37201  ! 20
 O     11.54994     6.76696    12.79364  ! 20
 O      9.63921     8.67858    13.61947  ! 20
 O      9.63966     6.77347    11.19788  ! 20
 O     15.37601     4.85637    10.37525  ! 21
 O     15.37106     6.75969    12.79452  ! 21
 O     13.46128     8.67521    13.61617  ! 21
 O     13.46171     6.77244    11.19516  ! 21
 O      7.72647     8.67904    10.37348  ! 22
 O      7.72484    10.58633    12.79622  ! 22
 O      5.81137    12.49088    13.61817  ! 22
 O      5.81685    10.58397    11.19710  ! 22
 O     11.54395     8.68463    10.37427  ! 23
 O     11.54493    10.58892    12.79658  ! 23
 O      9.63892    12.49626    13.62066  ! 23
 O      9.63462    10.59333    11.19829  ! 23
 O     15.37431     8.67442    10.37684  ! 24
 O     15.36412    10.58321    12.79685  !  24
 O     13.45950    12.49545    13.61982  ! 24
 O     13.45469    10.58936    11.19714  ! 24
 O      7.72134    12.49833    10.37621  ! 25
 O      7.72432    14.39824    12.79885  ! 25
 O      5.81777    16.31066    13.61672  ! 25
 O      5.81860    14.40737    11.19937  ! 25
 O     11.54419    12.50309    10.37664  ! 26
 O     11.54639    14.40374    12.79791  ! 26
 O      9.64052    16.31584    13.62010  ! 26
 O      9.63663    14.41150    11.20137  ! 26
 O     15.37405    12.49591    10.37853  ! 27
 O     15.36614    14.40023    12.79777  ! 27
 O     13.46247    16.31660    13.61830  ! 27
 O     13.45900    14.40961    11.19883  ! 27

K_POINTS automatic 
  1 1 1 0 0 0 

